1954.24 0
0 60 29 41 39 40 33 31 36 34 32 50 4 3 0
0 27 81 82 87 64 66 13 16 15 0
0 22 14 71 78 79 51 61 0
0 23 97 93 89 96 99 17 0
0 21 7 100 6 8 9 2 1 10 5 86 84 44 67 28 30 58 53 0
0 19 20 92 90 0
0 24 73 74 75 18 26 0
0 68 49 63 56 38 43 59 0
0 12 11 95 98 94 88 91 85 83 65 0
0 52 62 35 45 54 46 37 42 48 47 77 69 72 70 0
0 25 55 80 76 57 0